; SWAP1 SWAP2 DUP3 SWAP2 PUSH cw_1 SWAP2 => PUSH cw_1 SWAP1 DUP3 SWAP4
(set-option :produce-proofs true)
; 
(set-info :status unknown)
(declare-fun storage_t ((_ BitVec 256) (_ BitVec 256) (_ BitVec 256) (_ BitVec 256) Int (_ BitVec 256)) (_ BitVec 256))
(declare-fun w_1 () (_ BitVec 256))
(declare-fun storage_s ((_ BitVec 256) (_ BitVec 256) (_ BitVec 256) (_ BitVec 256) Int (_ BitVec 256)) (_ BitVec 256))
(declare-fun exc_halt_t (Int) Bool)
(declare-fun exc_halt_s (Int) Bool)
(declare-fun sc_t (Int) (_ BitVec 6))
(declare-fun stack_t ((_ BitVec 256) (_ BitVec 256) (_ BitVec 256) (_ BitVec 256) Int (_ BitVec 6)) (_ BitVec 256))
(declare-fun stack_s ((_ BitVec 256) (_ BitVec 256) (_ BitVec 256) (_ BitVec 256) Int (_ BitVec 6)) (_ BitVec 256))
(declare-fun sc_s (Int) (_ BitVec 6))
(declare-fun used_gas_t ((_ BitVec 256) (_ BitVec 256) (_ BitVec 256) (_ BitVec 256) Int) Int)
(declare-fun used_gas_s ((_ BitVec 256) (_ BitVec 256) (_ BitVec 256) (_ BitVec 256) Int) Int)
(assert
 (exists ((x_0 (_ BitVec 256)) (x_1 (_ BitVec 256)) (x_2 (_ BitVec 256)) )(let (($x4559 (forall ((w (_ BitVec 256)) )(let ((?x8657 (storage_t x_0 x_1 x_2 w_1 4 w)))
 (let ((?x6383 (storage_s x_0 x_1 x_2 w_1 6 w)))
 (= ?x6383 ?x8657))))
 ))
 (let (($x7854 (exc_halt_t 4)))
 (let (($x772 (exc_halt_s 6)))
 (let (($x4404 (= $x772 $x7854)))
 (let (($x5716 (forall ((n (_ BitVec 6)) )(let ((?x4507 (stack_t x_0 x_1 x_2 w_1 4 n)))
 (let ((?x7948 (stack_s x_0 x_1 x_2 w_1 6 n)))
 (let (($x5007 (= ?x7948 ?x4507)))
 (or $x5007 (bvsle (sc_t 4) n))))))
 ))
 (let ((?x4818 (sc_t 4)))
 (let ((?x926 (sc_s 6)))
 (let (($x7899 (= ?x926 ?x4818)))
 (let ((?x2123 (used_gas_t x_0 x_1 x_2 w_1 0)))
 (let ((?x46 (used_gas_s x_0 x_1 x_2 w_1 0)))
 (let (($x10868 (= ?x46 ?x2123)))
 (let (($x10891 (forall ((w (_ BitVec 256)) )(let ((?x10501 (storage_t x_0 x_1 x_2 w_1 0 w)))
 (let ((?x10879 (storage_s x_0 x_1 x_2 w_1 0 w)))
 (= ?x10879 ?x10501))))
 ))
 (let (($x56 (exc_halt_t 0)))
 (let (($x57 (exc_halt_s 0)))
 (let (($x58 (= $x57 $x56)))
 (let (($x1701 (forall ((n (_ BitVec 6)) )(let ((?x10838 (stack_t x_0 x_1 x_2 w_1 0 n)))
 (let ((?x10910 (stack_s x_0 x_1 x_2 w_1 0 n)))
 (let (($x7716 (= ?x10910 ?x10838)))
 (let ((?x63 (sc_t 0)))
 (let (($x4813 (bvsle ?x63 n)))
 (or $x4813 $x7716)))))))
 ))
 (let ((?x63 (sc_t 0)))
 (let ((?x72 (sc_s 0)))
 (let (($x73 (= ?x72 ?x63)))
 (let (($x4417 (= $x7854 (or (exc_halt_t 3) (not (bvsle (_ bv0 6) (bvadd (_ bv59 6) (sc_t 3))))))))
 (let (($x4976 (forall ((w (_ BitVec 256)) )(let ((?x10895 (storage_t x_0 x_1 x_2 w_1 3 w)))
 (let ((?x8657 (storage_t x_0 x_1 x_2 w_1 4 w)))
 (= ?x8657 ?x10895))))
 ))
 (let (($x9304 (forall ((n (_ BitVec 6)) )(let ((?x8622 (stack_t x_0 x_1 x_2 w_1 3 n)))
 (let ((?x4507 (stack_t x_0 x_1 x_2 w_1 4 n)))
 (or (bvsle (bvadd (_ bv59 6) (sc_t 3)) n) (= ?x4507 ?x8622)))))
 ))
 (let (($x7032 (= (used_gas_t x_0 x_1 x_2 w_1 4) (+ 3 (used_gas_t x_0 x_1 x_2 w_1 3)))))
 (let (($x9528 (= (stack_t x_0 x_1 x_2 w_1 4 (bvadd (_ bv62 6) ?x4818)) (stack_t x_0 x_1 x_2 w_1 3 (bvadd (_ bv62 6) (sc_t 3))))))
 (let (($x4046 (= (stack_t x_0 x_1 x_2 w_1 4 (bvadd (_ bv61 6) ?x4818)) (stack_t x_0 x_1 x_2 w_1 3 (bvadd (_ bv61 6) (sc_t 3))))))
 (let (($x9051 (= (stack_t x_0 x_1 x_2 w_1 4 (bvadd (_ bv60 6) ?x4818)) (stack_t x_0 x_1 x_2 w_1 3 (bvadd (_ bv60 6) (sc_t 3))))))
 (let ((?x7955 (stack_t x_0 x_1 x_2 w_1 3 (bvadd (_ bv63 6) (sc_t 3)))))
 (let (($x4892 (= (stack_t x_0 x_1 x_2 w_1 4 (bvadd (_ bv63 6) ?x4818)) (stack_t x_0 x_1 x_2 w_1 3 (bvadd (_ bv59 6) (sc_t 3))))))
 (let (($x2163 (exc_halt_t 2)))
 (let (($x1586 (or $x2163 (not (bvsle (_ bv0 6) (bvadd (_ bv61 6) (sc_t 2)))) (not (= ((_ extract 6 6) (bvadd (_ bv1 7) (concat (_ bv0 1) (sc_t 2)))) (_ bv0 1))))))
 (let (($x6783 (exc_halt_t 3)))
 (let (($x2779 (forall ((w (_ BitVec 256)) )(let ((?x5625 (storage_t x_0 x_1 x_2 w_1 2 w)))
 (let ((?x10895 (storage_t x_0 x_1 x_2 w_1 3 w)))
 (= ?x10895 ?x5625))))
 ))
 (let (($x11204 (forall ((n (_ BitVec 6)) )(let ((?x4750 (stack_t x_0 x_1 x_2 w_1 2 n)))
 (let ((?x8622 (stack_t x_0 x_1 x_2 w_1 3 n)))
 (or (= ?x8622 ?x4750) (bvsle (bvadd (_ bv61 6) (sc_t 2)) n)))))
 ))
 (let ((?x7517 (used_gas_t x_0 x_1 x_2 w_1 3)))
 (let ((?x2714 (sc_t 2)))
 (let ((?x7128 (bvadd (_ bv63 6) ?x2714)))
 (let ((?x5872 (stack_t x_0 x_1 x_2 w_1 2 ?x7128)))
 (let ((?x2021 (bvadd (_ bv62 6) ?x2714)))
 (let ((?x1287 (stack_t x_0 x_1 x_2 w_1 2 ?x2021)))
 (let ((?x5510 (bvadd (_ bv61 6) ?x2714)))
 (let ((?x5085 (stack_t x_0 x_1 x_2 w_1 2 ?x5510)))
 (let (($x5791 (= $x2163 (or (exc_halt_t 1) (not (bvsle (_ bv0 6) (bvadd (_ bv62 6) (sc_t 1))))))))
 (let (($x967 (forall ((w (_ BitVec 256)) )(let ((?x5972 (storage_t x_0 x_1 x_2 w_1 1 w)))
 (let ((?x5625 (storage_t x_0 x_1 x_2 w_1 2 w)))
 (= ?x5625 ?x5972))))
 ))
 (let (($x3044 (forall ((n (_ BitVec 6)) )(let ((?x3492 (stack_t x_0 x_1 x_2 w_1 1 n)))
 (let ((?x4750 (stack_t x_0 x_1 x_2 w_1 2 n)))
 (or (bvsle (bvadd (_ bv62 6) (sc_t 1)) n) (= ?x4750 ?x3492)))))
 ))
 (let ((?x3146 (used_gas_t x_0 x_1 x_2 w_1 2)))
 (let (($x5269 (= ?x1287 (stack_t x_0 x_1 x_2 w_1 1 (bvadd (_ bv63 6) (sc_t 1))))))
 (let (($x8053 (= ?x5872 (stack_t x_0 x_1 x_2 w_1 1 (bvadd (_ bv62 6) (sc_t 1))))))
 (let (($x8377 (exc_halt_t 1)))
 (let (($x3613 (= $x8377 (or $x56 (not (= ((_ extract 6 6) (bvadd (_ bv1 7) (concat (_ bv0 1) ?x63))) (_ bv0 1)))))))
 (let (($x6676 (forall ((w (_ BitVec 256)) )(let ((?x10501 (storage_t x_0 x_1 x_2 w_1 0 w)))
 (let ((?x5972 (storage_t x_0 x_1 x_2 w_1 1 w)))
 (= ?x5972 ?x10501))))
 ))
 (let (($x5272 (forall ((n (_ BitVec 6)) )(let ((?x63 (sc_t 0)))
 (let (($x4813 (bvsle ?x63 n)))
 (let ((?x10838 (stack_t x_0 x_1 x_2 w_1 0 n)))
 (let ((?x3492 (stack_t x_0 x_1 x_2 w_1 1 n)))
 (or (= ?x3492 ?x10838) $x4813))))))
 ))
 (let (($x1328 (= $x772 (or (exc_halt_s 5) (not (bvsle (_ bv0 6) (bvadd (_ bv61 6) (sc_s 5))))))))
 (let (($x5130 (forall ((w (_ BitVec 256)) )(let ((?x4626 (storage_s x_0 x_1 x_2 w_1 5 w)))
 (let ((?x6383 (storage_s x_0 x_1 x_2 w_1 6 w)))
 (= ?x6383 ?x4626))))
 ))
 (let (($x4166 (forall ((n (_ BitVec 6)) )(let ((?x5441 (stack_s x_0 x_1 x_2 w_1 5 n)))
 (let ((?x7948 (stack_s x_0 x_1 x_2 w_1 6 n)))
 (or (= ?x7948 ?x5441) (bvsle (bvadd (_ bv61 6) (sc_s 5)) n)))))
 ))
 (let (($x3326 (= (used_gas_s x_0 x_1 x_2 w_1 6) (+ 3 (used_gas_s x_0 x_1 x_2 w_1 5)))))
 (let (($x4514 (= (stack_s x_0 x_1 x_2 w_1 6 (bvadd (_ bv62 6) ?x926)) (stack_s x_0 x_1 x_2 w_1 5 (bvadd (_ bv62 6) (sc_s 5))))))
 (let (($x6801 (= (stack_s x_0 x_1 x_2 w_1 6 (bvadd (_ bv61 6) ?x926)) (stack_s x_0 x_1 x_2 w_1 5 (bvadd (_ bv63 6) (sc_s 5))))))
 (let (($x4594 (= (stack_s x_0 x_1 x_2 w_1 6 (bvadd (_ bv63 6) ?x926)) (stack_s x_0 x_1 x_2 w_1 5 (bvadd (_ bv61 6) (sc_s 5))))))
 (let (($x7172 (exc_halt_s 4)))
 (let (($x4411 (or $x7172 (not (= ((_ extract 6 6) (bvadd (_ bv1 7) (concat (_ bv0 1) (sc_s 4)))) (_ bv0 1))))))
 (let (($x11317 (exc_halt_s 5)))
 (let (($x10917 (forall ((w (_ BitVec 256)) )(let ((?x6750 (storage_s x_0 x_1 x_2 w_1 4 w)))
 (let ((?x4626 (storage_s x_0 x_1 x_2 w_1 5 w)))
 (= ?x4626 ?x6750))))
 ))
 (let (($x8877 (forall ((n (_ BitVec 6)) )(let ((?x6885 (stack_s x_0 x_1 x_2 w_1 4 n)))
 (let ((?x5441 (stack_s x_0 x_1 x_2 w_1 5 n)))
 (or (bvsle (sc_s 4) n) (= ?x5441 ?x6885)))))
 ))
 (let ((?x1244 (used_gas_s x_0 x_1 x_2 w_1 5)))
 (let (($x8654 (= $x7172 (or (exc_halt_s 3) (not (bvsle (_ bv0 6) (bvadd (_ bv61 6) (sc_s 3))))))))
 (let (($x4402 (forall ((w (_ BitVec 256)) )(let ((?x3479 (storage_s x_0 x_1 x_2 w_1 3 w)))
 (let ((?x6750 (storage_s x_0 x_1 x_2 w_1 4 w)))
 (= ?x6750 ?x3479))))
 ))
 (let (($x3270 (forall ((n (_ BitVec 6)) )(let ((?x8037 (stack_s x_0 x_1 x_2 w_1 3 n)))
 (let ((?x6885 (stack_s x_0 x_1 x_2 w_1 4 n)))
 (or (bvsle (bvadd (_ bv61 6) (sc_s 3)) n) (= ?x6885 ?x8037)))))
 ))
 (let ((?x2281 (used_gas_s x_0 x_1 x_2 w_1 4)))
 (let (($x10372 (= (stack_s x_0 x_1 x_2 w_1 4 (bvadd (_ bv62 6) (sc_s 4))) (stack_s x_0 x_1 x_2 w_1 3 (bvadd (_ bv62 6) (sc_s 3))))))
 (let ((?x9307 (stack_s x_0 x_1 x_2 w_1 3 (bvadd (_ bv63 6) (sc_s 3)))))
 (let (($x433 (= (stack_s x_0 x_1 x_2 w_1 4 (bvadd (_ bv61 6) (sc_s 4))) ?x9307)))
 (let (($x3740 (= (stack_s x_0 x_1 x_2 w_1 4 (bvadd (_ bv63 6) (sc_s 4))) (stack_s x_0 x_1 x_2 w_1 3 (bvadd (_ bv61 6) (sc_s 3))))))
 (let (($x247 (exc_halt_s 2)))
 (let (($x5310 (or $x247 (not (= ((_ extract 6 6) (bvadd (_ bv1 7) (concat (_ bv0 1) (sc_s 2)))) (_ bv0 1))) (not (bvsle (_ bv0 6) (bvadd (_ bv61 6) (sc_s 2)))))))
 (let (($x292 (exc_halt_s 3)))
 (let (($x1844 (forall ((w (_ BitVec 256)) )(let ((?x9398 (storage_s x_0 x_1 x_2 w_1 2 w)))
 (let ((?x3479 (storage_s x_0 x_1 x_2 w_1 3 w)))
 (= ?x3479 ?x9398))))
 ))
 (let (($x11349 (forall ((n (_ BitVec 6)) )(let ((?x6798 (stack_s x_0 x_1 x_2 w_1 2 n)))
 (let ((?x8037 (stack_s x_0 x_1 x_2 w_1 3 n)))
 (or (bvsle (bvadd (_ bv61 6) (sc_s 2)) n) (= ?x8037 ?x6798)))))
 ))
 (let ((?x1543 (used_gas_s x_0 x_1 x_2 w_1 3)))
 (let ((?x218 (sc_s 2)))
 (let ((?x616 (bvadd (_ bv63 6) ?x218)))
 (let ((?x10258 (stack_s x_0 x_1 x_2 w_1 2 ?x616)))
 (let ((?x3324 (bvadd (_ bv62 6) ?x218)))
 (let ((?x5588 (stack_s x_0 x_1 x_2 w_1 2 ?x3324)))
 (let ((?x11463 (bvadd (_ bv61 6) ?x218)))
 (let ((?x5840 (stack_s x_0 x_1 x_2 w_1 2 ?x11463)))
 (let (($x6405 (= $x247 (or (exc_halt_s 1) (not (bvsle (_ bv0 6) (bvadd (_ bv61 6) (sc_s 1))))))))
 (let (($x4179 (forall ((w (_ BitVec 256)) )(let ((?x10896 (storage_s x_0 x_1 x_2 w_1 1 w)))
 (let ((?x9398 (storage_s x_0 x_1 x_2 w_1 2 w)))
 (= ?x9398 ?x10896))))
 ))
 (let (($x1480 (forall ((n (_ BitVec 6)) )(let ((?x10894 (stack_s x_0 x_1 x_2 w_1 1 n)))
 (let ((?x6798 (stack_s x_0 x_1 x_2 w_1 2 n)))
 (or (bvsle (bvadd (_ bv61 6) (sc_s 1)) n) (= ?x6798 ?x10894)))))
 ))
 (let ((?x9053 (used_gas_s x_0 x_1 x_2 w_1 2)))
 (let ((?x6336 (stack_s x_0 x_1 x_2 w_1 1 (bvadd (_ bv62 6) (sc_s 1)))))
 (let ((?x6412 (stack_s x_0 x_1 x_2 w_1 1 (bvadd (_ bv63 6) (sc_s 1)))))
 (let (($x8250 (= ?x10258 (stack_s x_0 x_1 x_2 w_1 1 (bvadd (_ bv61 6) (sc_s 1))))))
 (let (($x3200 (forall ((w (_ BitVec 256)) )(let ((?x10879 (storage_s x_0 x_1 x_2 w_1 0 w)))
 (let ((?x10896 (storage_s x_0 x_1 x_2 w_1 1 w)))
 (= ?x10896 ?x10879))))
 ))
 (let (($x4942 (forall ((n (_ BitVec 6)) )(let ((?x10910 (stack_s x_0 x_1 x_2 w_1 0 n)))
 (let ((?x10894 (stack_s x_0 x_1 x_2 w_1 1 n)))
 (or (bvsle (bvadd (_ bv62 6) (sc_s 0)) n) (= ?x10894 ?x10910)))))
 ))
 (let (($x5298 (forall ((w (_ BitVec 256)) )(let ((?x10879 (storage_s x_0 x_1 x_2 w_1 0 w)))
 (= ?x10879 (_ bv0 256))))
 ))
 (let (($x6327 (= ?x46 0)))
 (let (($x4606 (= (stack_s x_0 x_1 x_2 w_1 0 (_ bv2 6)) x_2)))
 (let (($x5699 (= (stack_s x_0 x_1 x_2 w_1 0 (_ bv1 6)) x_1)))
 (let (($x1241 (= (stack_s x_0 x_1 x_2 w_1 0 (_ bv0 6)) x_0)))
 (let (($x11906 (= ?x72 (_ bv3 6))))
 (and $x11906 $x1241 $x5699 $x4606 (not $x57) $x6327 $x5298 (= ?x6412 (stack_s x_0 x_1 x_2 w_1 0 (bvadd (_ bv62 6) ?x72))) (= ?x6336 (stack_s x_0 x_1 x_2 w_1 0 (bvadd (_ bv63 6) ?x72))) (= (used_gas_s x_0 x_1 x_2 w_1 1) (+ 3 ?x46)) (= (sc_s 1) ?x72) $x4942 $x3200 (= (exc_halt_s 1) (or $x57 (not (bvsle (_ bv0 6) (bvadd (_ bv62 6) ?x72))))) $x8250 (= ?x5840 ?x6412) (= ?x5588 ?x6336) (= ?x9053 (+ 3 (used_gas_s x_0 x_1 x_2 w_1 1))) (= ?x218 (sc_s 1)) $x1480 $x4179 $x6405 (= ?x9307 ?x5840) (= (stack_s x_0 x_1 x_2 w_1 3 ?x11463) ?x5840) (= (stack_s x_0 x_1 x_2 w_1 3 ?x3324) ?x5588) (= (stack_s x_0 x_1 x_2 w_1 3 ?x616) ?x10258) (= ?x1543 (+ 3 ?x9053)) (= (sc_s 3) (bvadd (_ bv1 6) ?x218)) $x11349 $x1844 (= $x292 $x5310) $x3740 $x433 $x10372 (= ?x2281 (+ 3 ?x1543)) (= (sc_s 4) (sc_s 3)) $x3270 $x4402 $x8654 (= (stack_s x_0 x_1 x_2 w_1 5 (sc_s 4)) w_1) (= ?x1244 (+ 3 ?x2281)) (= (sc_s 5) (bvadd (_ bv1 6) (sc_s 4))) $x8877 $x10917 (= $x11317 $x4411) $x4594 $x6801 $x4514 $x3326 (= ?x926 (sc_s 5)) $x4166 $x5130 $x1328 (= (stack_t x_0 x_1 x_2 w_1 1 ?x63) w_1) (= (used_gas_t x_0 x_1 x_2 w_1 1) (+ 3 ?x2123)) (= (sc_t 1) (bvadd (_ bv1 6) ?x63)) $x5272 $x6676 $x3613 $x8053 $x5269 (= ?x3146 (+ 3 (used_gas_t x_0 x_1 x_2 w_1 1))) (= ?x2714 (sc_t 1)) $x3044 $x967 $x5791 (= ?x7955 ?x5085) (= (stack_t x_0 x_1 x_2 w_1 3 ?x5510) ?x5085) (= (stack_t x_0 x_1 x_2 w_1 3 ?x2021) ?x1287) (= (stack_t x_0 x_1 x_2 w_1 3 ?x7128) ?x5872) (= ?x7517 (+ 3 ?x3146)) (= (sc_t 3) (bvadd (_ bv1 6) ?x2714)) $x11204 $x2779 (= $x6783 $x1586) $x4892 (= (stack_t x_0 x_1 x_2 w_1 4 (bvadd (_ bv59 6) ?x4818)) ?x7955) $x9051 $x4046 $x9528 $x7032 (= ?x4818 (sc_t 3)) $x9304 $x4976 $x4417 $x73 $x1701 $x58 $x10891 $x10868 (not (and $x7899 $x5716 $x4404 $x4559))))))))))))))))))))))))))))))))))))))))))))))))))))))))))))))))))))))))))))))))))))))))))))))))))))))))
 )
(check-sat)
(get-proof)
